data;
param n := 6;

set V1:=1 2 3;
set V3:=4 5 6;

param a:=[1] 10 [2] 20 [3] 13;
param b:=[4] 10 [5] 20 [6] 18;

# A is set of Edges
# A(1 4) = p1 -> z1 ||
# A(3 5) = p3 -> z2 ||
# A(2 6) = p2 -> z3  ;
# (l,u,c) = (min liczb radiowoz p/z, max liczb radiowoz p/z, cost)
param : A : l   c   u :=
1 4     2   1   3
1 5     4   1   7
1 6     3   1   5
2 4     3   1   5
2 5     6   1   7
2 6     5   1   10
3 4     5   1   8
3 5     7   1   12
3 6     6   1   10;
end;
